8
Lattice="5.1123820279787395 0.0 0.0 0.0 4.427452710080594 0.0 0.0 0.0 22.0" Properties=species:S:1:pos:R:3:move_mask:L:1:tags:I:1 pbc="T T T"
Cu       0.00000000       1.47581757       2.00000000  F        0
Cu       2.55619101       1.47581757       2.00000000  F        0
Cu       1.27809551       3.68954393       2.00000000  F        0
Cu       3.83428652       3.68954393       2.00000000  F        0
Cu       0.00000000       0.00000000       4.08712122  T        0
Cu       2.55619101       0.00000000       4.08712122  T        0
Cu       1.27809551       2.21372636       4.08712122  T        0
Cu       3.83428652       2.21372636       4.08712122  T        0
