12
Lattice="5.1123820279787395 0.0 0.0 0.0 4.427452710080594 0.0 0.0 0.0 24.0" Properties=species:S:1:pos:R:3:move_mask:L:1:tags:I:1 pbc="T T F"
Cu       1.27809551       0.73790879       2.00000000  F        3
Cu       3.83428652       0.73790879       2.00000000  F        3
Cu       0.00000000       2.95163514       2.00000000  F        3
Cu       2.55619101       2.95163514       2.00000000  F        3
Cu       0.00000000       1.47581757       4.08712122  T        2
Cu       2.55619101       1.47581757       4.08712122  T        2
Cu       1.27809551       3.68954393       4.08712122  T        2
Cu       3.83428652       3.68954393       4.08712122  T        2
Cu       0.00000000       0.00000000       6.17424245  T        1
Cu       2.55619101       0.00000000       6.17424245  T        1
Cu       1.27809551       2.21372636       6.17424245  T        1
Cu       3.83428652       2.21372636       6.17424245  T        1
