184
Lattice="14.277000000000003 0.0 0.0 -8.881784197001252e-16 16.485659586440573 0.0 0.0 0.0 34.0" Properties=species:S:1:pos:R:3:tags:I:1 pbc="T T T"
Al       2.37950000       6.86902483       4.16516667        0
Al       2.37950000       1.37380497       5.84013960        0
Al       0.00000000       0.00000000       3.67497293        0
Al       0.00000000       0.00000000       6.33033333        0
Al       2.37950000       6.86902483       8.00530627        0
Al       2.37950000       1.37380497       2.00000000        0
O        3.10857880       5.60622330       2.83748647        0
O        3.10857880       8.13182635       2.83748647        0
O        0.92134240       6.86902483       2.83748647        0
O        3.10857880       0.11100344       7.16781980        0
O        3.10857880       2.63660649       7.16781980        0
O        0.92134240       1.37380497       7.16781980        0
O        1.65042120       5.38421642       5.00265313        0
O        1.65042120       2.85861337       5.00265313        0
O        1.45815760       0.00000000       5.00265313        0
Al       0.00000000       2.74760993       4.16516667        0
Al       0.00000000       5.49521986       5.84013960        0
Al       2.37950000       4.12141490       3.67497293        0
Al       2.37950000       4.12141490       6.33033333        0
Al       0.00000000       2.74760993       8.00530627        0
Al       0.00000000       5.49521986       2.00000000        0
O        0.72907880       1.48480841       2.83748647        0
O        0.72907880       4.01041146       2.83748647        0
O        3.30084240       2.74760993       2.83748647        0
O        0.72907880       4.23241834       7.16781980        0
O        0.72907880       6.75802139       7.16781980        0
O        3.30084240       5.49521986       7.16781980        0
O        4.02992120       1.26280152       5.00265313        0
O        4.02992120       6.98002827       5.00265313        0
O        3.83765760       4.12141490       5.00265313        0
Al       7.13850000       6.86902483       4.16516667        0
Al       7.13850000       1.37380497       5.84013960        0
Al       4.75900000       0.00000000       3.67497293        0
Al       4.75900000       0.00000000       6.33033333        0
Al       7.13850000       6.86902483       8.00530627        0
Al       7.13850000       1.37380497       2.00000000        0
O        7.86757880       5.60622330       2.83748647        0
O        7.86757880       8.13182635       2.83748647        0
O        5.68034240       6.86902483       2.83748647        0
O        7.86757880       0.11100344       7.16781980        0
O        7.86757880       2.63660649       7.16781980        0
O        5.68034240       1.37380497       7.16781980        0
O        6.40942120       5.38421642       5.00265313        0
O        6.40942120       2.85861337       5.00265313        0
O        6.21715760       0.00000000       5.00265313        0
Al       4.75900000       2.74760993       4.16516667        0
Al       4.75900000       5.49521986       5.84013960        0
Al       7.13850000       4.12141490       3.67497293        0
Al       7.13850000       4.12141490       6.33033333        0
Al       4.75900000       2.74760993       8.00530627        0
Al       4.75900000       5.49521986       2.00000000        0
O        5.48807880       1.48480841       2.83748647        0
O        5.48807880       4.01041146       2.83748647        0
O        8.05984240       2.74760993       2.83748647        0
O        5.48807880       4.23241834       7.16781980        0
O        5.48807880       6.75802139       7.16781980        0
O        8.05984240       5.49521986       7.16781980        0
O        8.78892120       1.26280152       5.00265313        0
O        8.78892120       6.98002827       5.00265313        0
O        8.59665760       4.12141490       5.00265313        0
Al       2.37950000      15.11185462       4.16516667        0
Al       2.37950000       9.61663476       5.84013960        0
Al       0.00000000       8.24282979       3.67497293        0
Al       0.00000000       8.24282979       6.33033333        0
Al       2.37950000      15.11185462       8.00530627        0
Al       2.37950000       9.61663476       2.00000000        0
O        3.10857880      13.84905309       2.83748647        0
O        3.10857880      16.37465614       2.83748647        0
O        0.92134240      15.11185462       2.83748647        0
O        3.10857880       8.35383323       7.16781980        0
O        3.10857880      10.87943628       7.16781980        0
O        0.92134240       9.61663476       7.16781980        0
O        1.65042120      13.62704621       5.00265313        0
O        1.65042120      11.10144316       5.00265313        0
O        1.45815760       8.24282979       5.00265313        0
Al       0.00000000      10.99043972       4.16516667        0
Al       0.00000000      13.73804965       5.84013960        0
Al       2.37950000      12.36424469       3.67497293        0
Al       2.37950000      12.36424469       6.33033333        0
Al       0.00000000      10.99043972       8.00530627        0
Al       0.00000000      13.73804965       2.00000000        0
O        0.72907880       9.72763820       2.83748647        0
O        0.72907880      12.25324125       2.83748647        0
O        3.30084240      10.99043972       2.83748647        0
O        0.72907880      12.47524813       7.16781980        0
O        0.72907880      15.00085118       7.16781980        0
O        3.30084240      13.73804965       7.16781980        0
O        4.02992120       9.50563131       5.00265313        0
O        4.02992120      15.22285806       5.00265313        0
O        3.83765760      12.36424469       5.00265313        0
Al       7.13850000      15.11185462       4.16516667        0
Al       7.13850000       9.61663476       5.84013960        0
Al       4.75900000       8.24282979       3.67497293        0
Al       4.75900000       8.24282979       6.33033333        0
Al       7.13850000      15.11185462       8.00530627        0
Al       7.13850000       9.61663476       2.00000000        0
O        7.86757880      13.84905309       2.83748647        0
O        7.86757880      16.37465614       2.83748647        0
O        5.68034240      15.11185462       2.83748647        0
O        7.86757880       8.35383323       7.16781980        0
O        7.86757880      10.87943628       7.16781980        0
O        5.68034240       9.61663476       7.16781980        0
O        6.40942120      13.62704621       5.00265313        0
O        6.40942120      11.10144316       5.00265313        0
O        6.21715760       8.24282979       5.00265313        0
Al       4.75900000      10.99043972       4.16516667        0
Al       4.75900000      13.73804965       5.84013960        0
Al       7.13850000      12.36424469       3.67497293        0
Al       7.13850000      12.36424469       6.33033333        0
Al       4.75900000      10.99043972       8.00530627        0
Al       4.75900000      13.73804965       2.00000000        0
O        5.48807880       9.72763820       2.83748647        0
O        5.48807880      12.25324125       2.83748647        0
O        8.05984240      10.99043972       2.83748647        0
O        5.48807880      12.47524813       7.16781980        0
O        5.48807880      15.00085118       7.16781980        0
O        8.05984240      13.73804965       7.16781980        0
O        8.78892120       9.50563131       5.00265313        0
O        8.78892120      15.22285806       5.00265313        0
O        8.59665760      12.36424469       5.00265313        0
Al      11.89750000       6.86902483       4.16516667        0
Al      11.89750000       1.37380497       5.84013960        0
Al       9.51800000       0.00000000       3.67497293        0
Al       9.51800000       0.00000000       6.33033333        0
Al      11.89750000       6.86902483       8.00530627        0
Al      11.89750000       1.37380497       2.00000000        0
O       12.62657880       5.60622330       2.83748647        0
O       12.62657880       8.13182635       2.83748647        0
O       10.43934240       6.86902483       2.83748647        0
O       12.62657880       0.11100344       7.16781980        0
O       12.62657880       2.63660649       7.16781980        0
O       10.43934240       1.37380497       7.16781980        0
O       11.16842120       5.38421642       5.00265313        0
O       11.16842120       2.85861337       5.00265313        0
O       10.97615760       0.00000000       5.00265313        0
Al       9.51800000       2.74760993       4.16516667        0
Al       9.51800000       5.49521986       5.84013960        0
Al      11.89750000       4.12141490       3.67497293        0
Al      11.89750000       4.12141490       6.33033333        0
Al       9.51800000       2.74760993       8.00530627        0
Al       9.51800000       5.49521986       2.00000000        0
O       10.24707880       1.48480841       2.83748647        0
O       10.24707880       4.01041146       2.83748647        0
O       12.81884240       2.74760993       2.83748647        0
O       10.24707880       4.23241834       7.16781980        0
O       10.24707880       6.75802139       7.16781980        0
O       12.81884240       5.49521986       7.16781980        0
O       13.54792120       1.26280152       5.00265313        0
O       13.54792120       6.98002827       5.00265313        0
O       13.35565760       4.12141490       5.00265313        0
Al      11.89750000      15.11185462       4.16516667        0
Al      11.89750000       9.61663476       5.84013960        0
Al       9.51800000       8.24282979       3.67497293        0
Al       9.51800000       8.24282979       6.33033333        0
Al      11.89750000      15.11185462       8.00530627        0
Al      11.89750000       9.61663476       2.00000000        0
O       12.62657880      13.84905309       2.83748647        0
O       12.62657880      16.37465614       2.83748647        0
O       10.43934240      15.11185462       2.83748647        0
O       12.62657880       8.35383323       7.16781980        0
O       12.62657880      10.87943628       7.16781980        0
O       10.43934240       9.61663476       7.16781980        0
O       11.16842120      13.62704621       5.00265313        0
O       11.16842120      11.10144316       5.00265313        0
O       10.97615760       8.24282979       5.00265313        0
Al       9.51800000      10.99043972       4.16516667        0
Al       9.51800000      13.73804965       5.84013960        0
Al      11.89750000      12.36424469       3.67497293        0
Al      11.89750000      12.36424469       6.33033333        0
Al       9.51800000      10.99043972       8.00530627        0
Al       9.51800000      13.73804965       2.00000000        0
O       10.24707880       9.72763820       2.83748647        0
O       10.24707880      12.25324125       2.83748647        0
O       12.81884240      10.99043972       2.83748647        0
O       10.24707880      12.47524813       7.16781980        0
O       10.24707880      15.00085118       7.16781980        0
O       12.81884240      13.73804965       7.16781980        0
O       13.54792120       9.50563131       5.00265313        0
O       13.54792120      15.22285806       5.00265313        0
O       13.35565760      12.36424469       5.00265313        0
Cu       7.24922792       8.70510017      10.69861933        1
Cu       6.74405537       7.33221858       9.82911591        2
Cu       6.82174422       9.66621113       9.35268301        3
Cu       8.55308784       7.79216174      10.06801604        4
