8
Lattice="20.0 0.0 0.0 0.0 20.0 0.0 0.0 0.0 20.0" Properties=species:S:1:pos:R:3:tags:I:1 seed_geometry=perturbed_cube pbc="T T T"
Cu       8.79000000       8.72000000       8.76000000        1
Cu       8.73000000       8.76000000      11.28000000        2
Cu       8.78000000      11.27000000       8.71000000        3
Cu       8.71000000      11.24000000      11.27000000        4
Cu      11.27000000       8.71000000       8.74000000        5
Cu      11.22000000       8.79000000      11.27000000        6
Cu      11.26000000      11.28000000       8.73000000        7
Cu      11.24000000      11.23000000      11.24000000        8
8
Lattice="20.0 0.0 0.0 0.0 20.0 0.0 0.0 0.0 20.0" Properties=species:S:1:pos:R:3:tags:I:1 seed_geometry=perturbed_square_antiprism pbc="T T T"
Cu      11.84000000       9.97000000       9.01000000        1
Cu       9.98000000      11.81000000       9.03000000        2
Cu       8.23000000      10.02000000       8.96000000        3
Cu       9.96000000       8.19000000       9.02000000        4
Cu      11.29279221      11.23279221      10.99000000        5
Cu       8.69720779      11.31279221      11.02000000        6
Cu       8.73720779       8.75720779      10.98000000        7
Cu      11.26279221       8.70720779      10.99000000        8
