201
Lattice="10.239818406592962 0.0 0.0 0.0 15.136 0.0 0.0 0.0 36.890213958776386" Properties=species:S:1:pos:R:3:move_mask:L:1:spacegroup_kinds:I:1:tags:I:1 spacegroup="I 41/a m d" unit_cell=conventional motif=parallel pbc="T T T"
Ti       0.00000000       0.00000000      12.73135966  F        0        0
Ti       5.11990920       1.89200000      12.73135966  F        0        0
Ti       8.02944657       1.89200000      13.61039771  F        0        0
Ti       2.90953736       0.00000000      13.61039771  F        0        0
O        8.40078904       0.00000000      13.46271931  F        1        0
O        3.28087983       1.89200000      13.46271931  F        1        0
O        6.19041720       1.89200000      14.34175736  F        1        0
O        1.07050799       0.00000000      14.34175736  F        1        0
O        4.74856673       0.00000000      12.87903805  F        1        0
O        9.86847594       1.89200000      12.87903805  F        1        0
O        8.35726962       1.89200000      15.51615220  T        1        0
O        3.23736042       0.00000000      15.51615220  T        1        0
Ti       1.39833105       0.00000000      16.24751186  T        0        0
Ti       6.51824025       1.89200000      16.24751186  T        0        0
Ti       9.42777761       1.89200000      17.12654991  T        0        0
Ti       4.30786841       0.00000000      17.12654991  T        0        0
O        9.79912008       0.00000000      16.97887151  T        1        0
O        4.67921088       1.89200000      16.97887151  T        1        0
O        7.58874824       1.89200000      17.85790956  T        1        0
O        2.46883904       0.00000000      17.85790956  T        1        0
O        6.14689778       0.00000000      16.39519025  T        1        0
O        1.02698858       1.89200000      16.39519025  T        1        0
O        9.75560067       1.89200000      19.03230440  T        1        0
O        4.63569147       0.00000000      19.03230440  T        1        0
Ti       2.79666210       0.00000000      19.76366405  T        0        0
Ti       7.91657130       1.89200000      19.76366405  T        0        0
Ti       0.58629026       1.89200000      20.64270210  T        0        0
Ti       5.70619946       0.00000000      20.64270210  T        0        0
O        0.95763272       0.00000000      20.49502371  T        1        0
O        6.07754193       1.89200000      20.49502371  T        1        0
O        8.98707929       1.89200000      21.37406176  T        1        0
O        3.86717009       0.00000000      21.37406176  T        1        0
O        7.54522883       0.00000000      19.91134245  T        1        0
O        2.42531963       1.89200000      19.91134245  T        1        0
O        0.91411331       1.89200000      22.54845659  T        1        0
O        6.03402251       0.00000000      22.54845659  T        1        0
Ti       4.19499314       0.00000000      23.27981625  T        0        0
Ti       9.31490235       1.89200000      23.27981625  T        0        0
Ti       1.98462130       1.89200000      24.15885430  T        0        0
Ti       7.10453051       0.00000000      24.15885430  T        0        0
O        2.35596377       0.00000000      24.01117591  T        1        0
O        7.47587298       1.89200000      24.01117591  T        1        0
O        0.14559193       1.89200000      24.89021396  T        1        0
O        5.26550114       0.00000000      24.89021396  T        1        0
O        8.94355988       0.00000000      23.42749464  T        1        0
O        3.82365067       1.89200000      23.42749464  T        1        0
O        6.95893857       1.89200000      12.00000000  F        1        0
O        1.83902937       0.00000000      12.00000000  F        1        0
Ti       0.00000000       3.78400000      12.73135966  F        0        0
Ti       5.11990920       5.67600000      12.73135966  F        0        0
Ti       8.02944657       5.67600000      13.61039771  F        0        0
Ti       2.90953736       3.78400000      13.61039771  F        0        0
O        8.40078904       3.78400000      13.46271931  F        1        0
O        3.28087983       5.67600000      13.46271931  F        1        0
O        6.19041720       5.67600000      14.34175736  F        1        0
O        1.07050799       3.78400000      14.34175736  F        1        0
O        4.74856673       3.78400000      12.87903805  F        1        0
O        9.86847594       5.67600000      12.87903805  F        1        0
O        8.35726962       5.67600000      15.51615220  T        1        0
O        3.23736042       3.78400000      15.51615220  T        1        0
Ti       1.39833105       3.78400000      16.24751186  T        0        0
Ti       6.51824025       5.67600000      16.24751186  T        0        0
Ti       9.42777761       5.67600000      17.12654991  T        0        0
Ti       4.30786841       3.78400000      17.12654991  T        0        0
O        9.79912008       3.78400000      16.97887151  T        1        0
O        4.67921088       5.67600000      16.97887151  T        1        0
O        7.58874824       5.67600000      17.85790956  T        1        0
O        2.46883904       3.78400000      17.85790956  T        1        0
O        6.14689778       3.78400000      16.39519025  T        1        0
O        1.02698858       5.67600000      16.39519025  T        1        0
O        9.75560067       5.67600000      19.03230440  T        1        0
O        4.63569147       3.78400000      19.03230440  T        1        0
Ti       2.79666210       3.78400000      19.76366405  T        0        0
Ti       7.91657130       5.67600000      19.76366405  T        0        0
Ti       0.58629026       5.67600000      20.64270210  T        0        0
Ti       5.70619946       3.78400000      20.64270210  T        0        0
O        0.95763272       3.78400000      20.49502371  T        1        0
O        6.07754193       5.67600000      20.49502371  T        1        0
O        8.98707929       5.67600000      21.37406176  T        1        0
O        3.86717009       3.78400000      21.37406176  T        1        0
O        7.54522883       3.78400000      19.91134245  T        1        0
O        2.42531963       5.67600000      19.91134245  T        1        0
O        0.91411331       5.67600000      22.54845659  T        1        0
O        6.03402251       3.78400000      22.54845659  T        1        0
Ti       4.19499314       3.78400000      23.27981625  T        0        0
Ti       9.31490235       5.67600000      23.27981625  T        0        0
Ti       1.98462130       5.67600000      24.15885430  T        0        0
Ti       7.10453051       3.78400000      24.15885430  T        0        0
O        2.35596377       3.78400000      24.01117591  T        1        0
O        7.47587298       5.67600000      24.01117591  T        1        0
O        0.14559193       5.67600000      24.89021396  T        1        0
O        5.26550114       3.78400000      24.89021396  T        1        0
O        8.94355988       3.78400000      23.42749464  T        1        0
O        3.82365067       5.67600000      23.42749464  T        1        0
O        6.95893857       5.67600000      12.00000000  F        1        0
O        1.83902937       3.78400000      12.00000000  F        1        0
Ti       0.00000000       7.56800000      12.73135966  F        0        0
Ti       5.11990920       9.46000000      12.73135966  F        0        0
Ti       8.02944657       9.46000000      13.61039771  F        0        0
Ti       2.90953736       7.56800000      13.61039771  F        0        0
O        8.40078904       7.56800000      13.46271931  F        1        0
O        3.28087983       9.46000000      13.46271931  F        1        0
O        6.19041720       9.46000000      14.34175736  F        1        0
O        1.07050799       7.56800000      14.34175736  F        1        0
O        4.74856673       7.56800000      12.87903805  F        1        0
O        9.86847594       9.46000000      12.87903805  F        1        0
O        8.35726962       9.46000000      15.51615220  T        1        0
O        3.23736042       7.56800000      15.51615220  T        1        0
Ti       1.39833105       7.56800000      16.24751186  T        0        0
Ti       6.51824025       9.46000000      16.24751186  T        0        0
Ti       9.42777761       9.46000000      17.12654991  T        0        0
Ti       4.30786841       7.56800000      17.12654991  T        0        0
O        9.79912008       7.56800000      16.97887151  T        1        0
O        4.67921088       9.46000000      16.97887151  T        1        0
O        7.58874824       9.46000000      17.85790956  T        1        0
O        2.46883904       7.56800000      17.85790956  T        1        0
O        6.14689778       7.56800000      16.39519025  T        1        0
O        1.02698858       9.46000000      16.39519025  T        1        0
O        9.75560067       9.46000000      19.03230440  T        1        0
O        4.63569147       7.56800000      19.03230440  T        1        0
Ti       2.79666210       7.56800000      19.76366405  T        0        0
Ti       7.91657130       9.46000000      19.76366405  T        0        0
Ti       0.58629026       9.46000000      20.64270210  T        0        0
Ti       5.70619946       7.56800000      20.64270210  T        0        0
O        0.95763272       7.56800000      20.49502371  T        1        0
O        6.07754193       9.46000000      20.49502371  T        1        0
O        8.98707929       9.46000000      21.37406176  T        1        0
O        3.86717009       7.56800000      21.37406176  T        1        0
O        7.54522883       7.56800000      19.91134245  T        1        0
O        2.42531963       9.46000000      19.91134245  T        1        0
O        0.91411331       9.46000000      22.54845659  T        1        0
O        6.03402251       7.56800000      22.54845659  T        1        0
Ti       4.19499314       7.56800000      23.27981625  T        0        0
Ti       9.31490235       9.46000000      23.27981625  T        0        0
Ti       1.98462130       9.46000000      24.15885430  T        0        0
Ti       7.10453051       7.56800000      24.15885430  T        0        0
O        2.35596377       7.56800000      24.01117591  T        1        0
O        7.47587298       9.46000000      24.01117591  T        1        0
O        0.14559193       9.46000000      24.89021396  T        1        0
O        5.26550114       7.56800000      24.89021396  T        1        0
O        8.94355988       7.56800000      23.42749464  T        1        0
O        3.82365067       9.46000000      23.42749464  T        1        0
O        6.95893857       9.46000000      12.00000000  F        1        0
O        1.83902937       7.56800000      12.00000000  F        1        0
Ti       0.00000000      11.35200000      12.73135966  F        0        0
Ti       5.11990920      13.24400000      12.73135966  F        0        0
Ti       8.02944657      13.24400000      13.61039771  F        0        0
Ti       2.90953736      11.35200000      13.61039771  F        0        0
O        8.40078904      11.35200000      13.46271931  F        1        0
O        3.28087983      13.24400000      13.46271931  F        1        0
O        6.19041720      13.24400000      14.34175736  F        1        0
O        1.07050799      11.35200000      14.34175736  F        1        0
O        4.74856673      11.35200000      12.87903805  F        1        0
O        9.86847594      13.24400000      12.87903805  F        1        0
O        8.35726962      13.24400000      15.51615220  T        1        0
O        3.23736042      11.35200000      15.51615220  T        1        0
Ti       1.39833105      11.35200000      16.24751186  T        0        0
Ti       6.51824025      13.24400000      16.24751186  T        0        0
Ti       9.42777761      13.24400000      17.12654991  T        0        0
Ti       4.30786841      11.35200000      17.12654991  T        0        0
O        9.79912008      11.35200000      16.97887151  T        1        0
O        4.67921088      13.24400000      16.97887151  T        1        0
O        7.58874824      13.24400000      17.85790956  T        1        0
O        2.46883904      11.35200000      17.85790956  T        1        0
O        6.14689778      11.35200000      16.39519025  T        1        0
O        1.02698858      13.24400000      16.39519025  T        1        0
O        9.75560067      13.24400000      19.03230440  T        1        0
O        4.63569147      11.35200000      19.03230440  T        1        0
Ti       2.79666210      11.35200000      19.76366405  T        0        0
Ti       7.91657130      13.24400000      19.76366405  T        0        0
Ti       0.58629026      13.24400000      20.64270210  T        0        0
Ti       5.70619946      11.35200000      20.64270210  T        0        0
O        0.95763272      11.35200000      20.49502371  T        1        0
O        6.07754193      13.24400000      20.49502371  T        1        0
O        8.98707929      13.24400000      21.37406176  T        1        0
O        3.86717009      11.35200000      21.37406176  T        1        0
O        7.54522883      11.35200000      19.91134245  T        1        0
O        2.42531963      13.24400000      19.91134245  T        1        0
O        0.91411331      13.24400000      22.54845659  T        1        0
O        6.03402251      11.35200000      22.54845659  T        1        0
Ti       4.19499314      11.35200000      23.27981625  T        0        0
Ti       9.31490235      13.24400000      23.27981625  T        0        0
Ti       1.98462130      13.24400000      24.15885430  T        0        0
Ti       7.10453051      11.35200000      24.15885430  T        0        0
O        2.35596377      11.35200000      24.01117591  T        1        0
O        7.47587298      13.24400000      24.01117591  T        1        0
O        0.14559193      13.24400000      24.89021396  T        1        0
O        5.26550114      11.35200000      24.89021396  T        1        0
O        8.94355988      11.35200000      23.42749464  T        1        0
O        3.82365067      13.24400000      23.42749464  T        1        0
O        6.95893857      13.24400000      12.00000000  F        1        0
O        1.83902937      11.35200000      12.00000000  F        1        0
O        1.98462130       5.67600000      26.45885430  T        0        1
H        2.57050358       6.43295033      26.45885430  T        0        1
H        2.57050358       4.91904967      26.45885430  T        0        1
O        1.98462130       9.46000000      26.45885430  T        0        2
H        2.57050358      10.21695033      26.45885430  T        0        2
H        2.57050358       8.70304967      26.45885430  T        0        2
O        1.98462130      13.24400000      26.45885430  T        0        3
H        2.57050358      14.00095033      26.45885430  T        0        3
H        2.57050358      12.48704967      26.45885430  T        0        3
201
Lattice="10.239818406592962 0.0 0.0 0.0 15.136 0.0 0.0 0.0 36.890213958776386" Properties=species:S:1:pos:R:3:move_mask:L:1:spacegroup_kinds:I:1:tags:I:1 spacegroup="I 41/a m d" unit_cell=conventional motif=hydrogen_bonded pbc="T T T"
Ti       0.00000000       0.00000000      12.73135966  F        0        0
Ti       5.11990920       1.89200000      12.73135966  F        0        0
Ti       8.02944657       1.89200000      13.61039771  F        0        0
Ti       2.90953736       0.00000000      13.61039771  F        0        0
O        8.40078904       0.00000000      13.46271931  F        1        0
O        3.28087983       1.89200000      13.46271931  F        1        0
O        6.19041720       1.89200000      14.34175736  F        1        0
O        1.07050799       0.00000000      14.34175736  F        1        0
O        4.74856673       0.00000000      12.87903805  F        1        0
O        9.86847594       1.89200000      12.87903805  F        1        0
O        8.35726962       1.89200000      15.51615220  T        1        0
O        3.23736042       0.00000000      15.51615220  T        1        0
Ti       1.39833105       0.00000000      16.24751186  T        0        0
Ti       6.51824025       1.89200000      16.24751186  T        0        0
Ti       9.42777761       1.89200000      17.12654991  T        0        0
Ti       4.30786841       0.00000000      17.12654991  T        0        0
O        9.79912008       0.00000000      16.97887151  T        1        0
O        4.67921088       1.89200000      16.97887151  T        1        0
O        7.58874824       1.89200000      17.85790956  T        1        0
O        2.46883904       0.00000000      17.85790956  T        1        0
O        6.14689778       0.00000000      16.39519025  T        1        0
O        1.02698858       1.89200000      16.39519025  T        1        0
O        9.75560067       1.89200000      19.03230440  T        1        0
O        4.63569147       0.00000000      19.03230440  T        1        0
Ti       2.79666210       0.00000000      19.76366405  T        0        0
Ti       7.91657130       1.89200000      19.76366405  T        0        0
Ti       0.58629026       1.89200000      20.64270210  T        0        0
Ti       5.70619946       0.00000000      20.64270210  T        0        0
O        0.95763272       0.00000000      20.49502371  T        1        0
O        6.07754193       1.89200000      20.49502371  T        1        0
O        8.98707929       1.89200000      21.37406176  T        1        0
O        3.86717009       0.00000000      21.37406176  T        1        0
O        7.54522883       0.00000000      19.91134245  T        1        0
O        2.42531963       1.89200000      19.91134245  T        1        0
O        0.91411331       1.89200000      22.54845659  T        1        0
O        6.03402251       0.00000000      22.54845659  T        1        0
Ti       4.19499314       0.00000000      23.27981625  T        0        0
Ti       9.31490235       1.89200000      23.27981625  T        0        0
Ti       1.98462130       1.89200000      24.15885430  T        0        0
Ti       7.10453051       0.00000000      24.15885430  T        0        0
O        2.35596377       0.00000000      24.01117591  T        1        0
O        7.47587298       1.89200000      24.01117591  T        1        0
O        0.14559193       1.89200000      24.89021396  T        1        0
O        5.26550114       0.00000000      24.89021396  T        1        0
O        8.94355988       0.00000000      23.42749464  T        1        0
O        3.82365067       1.89200000      23.42749464  T        1        0
O        6.95893857       1.89200000      12.00000000  F        1        0
O        1.83902937       0.00000000      12.00000000  F        1        0
Ti       0.00000000       3.78400000      12.73135966  F        0        0
Ti       5.11990920       5.67600000      12.73135966  F        0        0
Ti       8.02944657       5.67600000      13.61039771  F        0        0
Ti       2.90953736       3.78400000      13.61039771  F        0        0
O        8.40078904       3.78400000      13.46271931  F        1        0
O        3.28087983       5.67600000      13.46271931  F        1        0
O        6.19041720       5.67600000      14.34175736  F        1        0
O        1.07050799       3.78400000      14.34175736  F        1        0
O        4.74856673       3.78400000      12.87903805  F        1        0
O        9.86847594       5.67600000      12.87903805  F        1        0
O        8.35726962       5.67600000      15.51615220  T        1        0
O        3.23736042       3.78400000      15.51615220  T        1        0
Ti       1.39833105       3.78400000      16.24751186  T        0        0
Ti       6.51824025       5.67600000      16.24751186  T        0        0
Ti       9.42777761       5.67600000      17.12654991  T        0        0
Ti       4.30786841       3.78400000      17.12654991  T        0        0
O        9.79912008       3.78400000      16.97887151  T        1        0
O        4.67921088       5.67600000      16.97887151  T        1        0
O        7.58874824       5.67600000      17.85790956  T        1        0
O        2.46883904       3.78400000      17.85790956  T        1        0
O        6.14689778       3.78400000      16.39519025  T        1        0
O        1.02698858       5.67600000      16.39519025  T        1        0
O        9.75560067       5.67600000      19.03230440  T        1        0
O        4.63569147       3.78400000      19.03230440  T        1        0
Ti       2.79666210       3.78400000      19.76366405  T        0        0
Ti       7.91657130       5.67600000      19.76366405  T        0        0
Ti       0.58629026       5.67600000      20.64270210  T        0        0
Ti       5.70619946       3.78400000      20.64270210  T        0        0
O        0.95763272       3.78400000      20.49502371  T        1        0
O        6.07754193       5.67600000      20.49502371  T        1        0
O        8.98707929       5.67600000      21.37406176  T        1        0
O        3.86717009       3.78400000      21.37406176  T        1        0
O        7.54522883       3.78400000      19.91134245  T        1        0
O        2.42531963       5.67600000      19.91134245  T        1        0
O        0.91411331       5.67600000      22.54845659  T        1        0
O        6.03402251       3.78400000      22.54845659  T        1        0
Ti       4.19499314       3.78400000      23.27981625  T        0        0
Ti       9.31490235       5.67600000      23.27981625  T        0        0
Ti       1.98462130       5.67600000      24.15885430  T        0        0
Ti       7.10453051       3.78400000      24.15885430  T        0        0
O        2.35596377       3.78400000      24.01117591  T        1        0
O        7.47587298       5.67600000      24.01117591  T        1        0
O        0.14559193       5.67600000      24.89021396  T        1        0
O        5.26550114       3.78400000      24.89021396  T        1        0
O        8.94355988       3.78400000      23.42749464  T        1        0
O        3.82365067       5.67600000      23.42749464  T        1        0
O        6.95893857       5.67600000      12.00000000  F        1        0
O        1.83902937       3.78400000      12.00000000  F        1        0
Ti       0.00000000       7.56800000      12.73135966  F        0        0
Ti       5.11990920       9.46000000      12.73135966  F        0        0
Ti       8.02944657       9.46000000      13.61039771  F        0        0
Ti       2.90953736       7.56800000      13.61039771  F        0        0
O        8.40078904       7.56800000      13.46271931  F        1        0
O        3.28087983       9.46000000      13.46271931  F        1        0
O        6.19041720       9.46000000      14.34175736  F        1        0
O        1.07050799       7.56800000      14.34175736  F        1        0
O        4.74856673       7.56800000      12.87903805  F        1        0
O        9.86847594       9.46000000      12.87903805  F        1        0
O        8.35726962       9.46000000      15.51615220  T        1        0
O        3.23736042       7.56800000      15.51615220  T        1        0
Ti       1.39833105       7.56800000      16.24751186  T        0        0
Ti       6.51824025       9.46000000      16.24751186  T        0        0
Ti       9.42777761       9.46000000      17.12654991  T        0        0
Ti       4.30786841       7.56800000      17.12654991  T        0        0
O        9.79912008       7.56800000      16.97887151  T        1        0
O        4.67921088       9.46000000      16.97887151  T        1        0
O        7.58874824       9.46000000      17.85790956  T        1        0
O        2.46883904       7.56800000      17.85790956  T        1        0
O        6.14689778       7.56800000      16.39519025  T        1        0
O        1.02698858       9.46000000      16.39519025  T        1        0
O        9.75560067       9.46000000      19.03230440  T        1        0
O        4.63569147       7.56800000      19.03230440  T        1        0
Ti       2.79666210       7.56800000      19.76366405  T        0        0
Ti       7.91657130       9.46000000      19.76366405  T        0        0
Ti       0.58629026       9.46000000      20.64270210  T        0        0
Ti       5.70619946       7.56800000      20.64270210  T        0        0
O        0.95763272       7.56800000      20.49502371  T        1        0
O        6.07754193       9.46000000      20.49502371  T        1        0
O        8.98707929       9.46000000      21.37406176  T        1        0
O        3.86717009       7.56800000      21.37406176  T        1        0
O        7.54522883       7.56800000      19.91134245  T        1        0
O        2.42531963       9.46000000      19.91134245  T        1        0
O        0.91411331       9.46000000      22.54845659  T        1        0
O        6.03402251       7.56800000      22.54845659  T        1        0
Ti       4.19499314       7.56800000      23.27981625  T        0        0
Ti       9.31490235       9.46000000      23.27981625  T        0        0
Ti       1.98462130       9.46000000      24.15885430  T        0        0
Ti       7.10453051       7.56800000      24.15885430  T        0        0
O        2.35596377       7.56800000      24.01117591  T        1        0
O        7.47587298       9.46000000      24.01117591  T        1        0
O        0.14559193       9.46000000      24.89021396  T        1        0
O        5.26550114       7.56800000      24.89021396  T        1        0
O        8.94355988       7.56800000      23.42749464  T        1        0
O        3.82365067       9.46000000      23.42749464  T        1        0
O        6.95893857       9.46000000      12.00000000  F        1        0
O        1.83902937       7.56800000      12.00000000  F        1        0
Ti       0.00000000      11.35200000      12.73135966  F        0        0
Ti       5.11990920      13.24400000      12.73135966  F        0        0
Ti       8.02944657      13.24400000      13.61039771  F        0        0
Ti       2.90953736      11.35200000      13.61039771  F        0        0
O        8.40078904      11.35200000      13.46271931  F        1        0
O        3.28087983      13.24400000      13.46271931  F        1        0
O        6.19041720      13.24400000      14.34175736  F        1        0
O        1.07050799      11.35200000      14.34175736  F        1        0
O        4.74856673      11.35200000      12.87903805  F        1        0
O        9.86847594      13.24400000      12.87903805  F        1        0
O        8.35726962      13.24400000      15.51615220  T        1        0
O        3.23736042      11.35200000      15.51615220  T        1        0
Ti       1.39833105      11.35200000      16.24751186  T        0        0
Ti       6.51824025      13.24400000      16.24751186  T        0        0
Ti       9.42777761      13.24400000      17.12654991  T        0        0
Ti       4.30786841      11.35200000      17.12654991  T        0        0
O        9.79912008      11.35200000      16.97887151  T        1        0
O        4.67921088      13.24400000      16.97887151  T        1        0
O        7.58874824      13.24400000      17.85790956  T        1        0
O        2.46883904      11.35200000      17.85790956  T        1        0
O        6.14689778      11.35200000      16.39519025  T        1        0
O        1.02698858      13.24400000      16.39519025  T        1        0
O        9.75560067      13.24400000      19.03230440  T        1        0
O        4.63569147      11.35200000      19.03230440  T        1        0
Ti       2.79666210      11.35200000      19.76366405  T        0        0
Ti       7.91657130      13.24400000      19.76366405  T        0        0
Ti       0.58629026      13.24400000      20.64270210  T        0        0
Ti       5.70619946      11.35200000      20.64270210  T        0        0
O        0.95763272      11.35200000      20.49502371  T        1        0
O        6.07754193      13.24400000      20.49502371  T        1        0
O        8.98707929      13.24400000      21.37406176  T        1        0
O        3.86717009      11.35200000      21.37406176  T        1        0
O        7.54522883      11.35200000      19.91134245  T        1        0
O        2.42531963      13.24400000      19.91134245  T        1        0
O        0.91411331      13.24400000      22.54845659  T        1        0
O        6.03402251      11.35200000      22.54845659  T        1        0
Ti       4.19499314      11.35200000      23.27981625  T        0        0
Ti       9.31490235      13.24400000      23.27981625  T        0        0
Ti       1.98462130      13.24400000      24.15885430  T        0        0
Ti       7.10453051      11.35200000      24.15885430  T        0        0
O        2.35596377      11.35200000      24.01117591  T        1        0
O        7.47587298      13.24400000      24.01117591  T        1        0
O        0.14559193      13.24400000      24.89021396  T        1        0
O        5.26550114      11.35200000      24.89021396  T        1        0
O        8.94355988      11.35200000      23.42749464  T        1        0
O        3.82365067      13.24400000      23.42749464  T        1        0
O        6.95893857      13.24400000      12.00000000  F        1        0
O        1.83902937      11.35200000      12.00000000  F        1        0
O        1.98462130       6.47600000      26.45885430  T        0        1
H        2.06804678       7.42955757      26.45885430  T        0        1
H        2.88680615       6.15616513      26.45885430  T        0        1
O        1.98462130       9.46000000      26.45885430  T        0        2
H        2.06804678      10.41355757      26.45885430  T        0        2
H        2.88680615       9.14016513      26.45885430  T        0        2
O        1.98462130      12.44400000      26.45885430  T        0        3
H        2.57050358      13.20095033      26.45885430  T        0        3
H        2.57050358      11.68704967      26.45885430  T        0        3
