11
Lattice="4.978031739553295 0.0 0.0 2.4890158697766473 4.311101947298393 0.0 0.0 0.0 17.032272947547483" Properties=species:S:1:pos:R:3:move_mask:L:1:tags:I:1 energy=-43.44449586105507 reference_fmax=0.019428173056139992 pbc="T T F"
Ni       0.00000000       1.43703398       2.50000000  F        2
Ni       2.48901587       1.43703398       2.50000000  F        2
Ni       1.24450793       3.59258496       2.50000000  F        2
Ni       3.73352380       3.59258496       2.50000000  F        2
Ni       0.00000000      -0.00011506       4.54167153  T        1
Ni       2.48901587       0.00134512       4.53403471  T        1
Ni       1.24782018       2.15812969       4.54447228  T        1
Ni       3.73021156       2.15812969       4.54447228  T        1
O       -0.00000000       1.32420248       6.24652686  T        0
H       -0.73114647       1.56676570       6.84056074  T        0
H        0.73114647       1.56676570       6.84056074  T        0
11
Lattice="4.978031739553295 0.0 0.0 2.4890158697766473 4.311101947298393 0.0 0.0 0.0 17.032272947547483" Properties=species:S:1:pos:R:3:move_mask:L:1:tags:I:1 energy=-43.699301214130735 reference_fmax=0.019125977027784156 pbc="T T F"
Ni       0.00000000       1.43703398       2.50000000  F        2
Ni       2.48901587       1.43703398       2.50000000  F        2
Ni       1.24450793       3.59258496       2.50000000  F        2
Ni       3.73352380       3.59258496       2.50000000  F        2
Ni      -0.01916120      -0.01572393       4.55870145  T        1
Ni       2.47403125      -0.00203080       4.54114601  T        1
Ni       1.24426985       2.13706323       4.58191589  T        1
Ni       3.73595266       2.16220028       4.54314072  T        1
O       -0.05005652       1.42642772       5.94516597  T        0
H       -0.04532411       1.43544641       6.89481034  T        0
H        2.22072862       1.23675051       5.42144767  T        0
