4
Lattice="3.546 0.0 0.0 0.0 3.546 0.0 0.0 0.0 3.546" Properties=species:S:1:pos:R:3:energies:R:1:forces:R:3 energy=0.008255485192613321 free_energy=0.008255485192613321 stress="-0.034429188254050225 5.394976831041496e-06 -0.000403126282852768 5.394976831041496e-06 -0.03380100961515352 0.00029131956466981417 -0.000403126282852768 0.00029131956466981417 -0.03422343115375718" pbc="T T T"
Cu       0.00643474       0.00756949       0.02290111       0.00235810      -0.11388024      -0.15929304      -0.17179918
Cu       0.00629344       1.77055588       1.79647020       0.00080670      -0.11188401       0.12751240      -0.09088007
Cu       1.76536822       0.01141762       1.75990550       0.00306787       0.14096583      -0.19506922       0.24819862
Cu       1.77139666       1.75984666       0.00276906       0.00202281       0.08479841       0.22684985       0.01448062
4
Lattice="3.5568 0.0 0.0 0.0 3.5568 0.0 0.0 0.0 3.5568" Properties=species:S:1:pos:R:3:energies:R:1:forces:R:3 energy=0.007731886913466823 free_energy=0.007731886913466823 stress="-0.02655909872213616 0.00023825257070113066 -0.0001849327455854037 0.00023825257070113066 -0.0263522810193737 0.000492629616631394 -0.0001849327455854037 0.000492629616631394 -0.026353831669730335" pbc="T T T"
Cu      -0.00595058       0.01794913      -0.01503610       0.00061354      -0.18210806      -0.31316175       0.05414968
Cu      -0.01310874       1.75593148       1.78064591       0.00374421      -0.11971859       0.47289373      -0.15491355
Cu       1.75193671       0.03479931       1.75700196       0.00337732       0.16641727      -0.46365455       0.05664578
Cu       1.75528336       1.77476313      -0.01405710      -0.00000319       0.13540937       0.30392258       0.04411809
4
Lattice="3.5676 0.0 0.0 0.0 3.5676 0.0 0.0 0.0 3.5676" Properties=species:S:1:pos:R:3:energies:R:1:forces:R:3 energy=-0.005238013882586046 free_energy=-0.005238013882586046 stress="-0.018180707131231308 -6.546557126324306e-05 -0.00021138468411504077 -6.546557126324306e-05 -0.0173150849226933 0.00045806026825909987 -0.00021138468411504077 0.00045806026825909987 -0.017167753962554495" pbc="T T T"
Cu      -0.02457764       0.02859683       0.01417818      -0.00061169       0.01525686      -0.27259501      -0.21877007
Cu       0.00751486       1.80366907       1.78586495      -0.00291709      -0.26123438      -0.00622504      -0.00614631
Cu       1.76179983       0.00616011       1.76115397      -0.00152474       0.12659529      -0.07954571       0.20671897
Cu       1.76260210       1.76131318      -0.01346817      -0.00018448       0.11938222       0.35836575       0.01819741
4
Lattice="3.5784000000000002 0.0 0.0 0.0 3.5784000000000002 0.0 0.0 0.0 3.5784000000000002" Properties=species:S:1:pos:R:3:energies:R:1:forces:R:3 energy=-0.011662080176501277 free_energy=-0.011662080176501277 stress="-0.009591266508806852 0.0003007771997367251 2.3337591889831042e-05 0.0003007771997367251 -0.009490098981787053 4.053198239533739e-05 2.3337591889831042e-05 4.053198239533739e-05 -0.00916791970322111" pbc="T T T"
Cu       0.00826162      -0.02198149      -0.00135821      -0.00347394       0.15350490       0.15798252       0.02555052
Cu       0.00743722       1.81061337       1.78635717      -0.00039784       0.16070414      -0.42388687      -0.01979677
Cu       1.80485863      -0.03328165       1.79445156      -0.00287136      -0.07845842       0.25216793      -0.08657353
Cu       1.82398415       1.75787994      -0.00802583      -0.00491893      -0.23575062       0.01373642       0.08081979
4
Lattice="3.5892 0.0 0.0 0.0 3.5892 0.0 0.0 0.0 3.5892" Properties=species:S:1:pos:R:3:energies:R:1:forces:R:3 energy=0.010962922612796078 free_energy=0.010962922612796078 stress="-0.0034311532113829174 0.001250115961150995 -0.0013572373928795233 0.001250115961150995 -0.0033391776200292697 -0.002029182725605483 -0.0013572373928795233 -0.002029182725605483 -0.003978531977991032" pbc="T T T"
Cu       0.01235969       0.05995126      -0.01114402      -0.00018503      -0.03340032      -0.48347542      -0.04041343
Cu      -0.02870743       1.79076262       1.77314530       0.00556610       0.29806165       0.09815971       0.29498774
Cu       1.79432924      -0.04409134       1.78863917      -0.00064964      -0.07557988       0.35237253       0.17009324
Cu       1.80828155       1.79867519       0.03646155       0.00623148      -0.18908146       0.03294318      -0.42466755
4
Lattice="3.6 0.0 0.0 0.0 3.6 0.0 0.0 0.0 3.6" Properties=species:S:1:pos:R:3:energies:R:1:forces:R:3 energy=-0.0005648603388301865 free_energy=-0.0005648603388301865 stress="0.003875710956336409 -0.00010645676111827756 0.0010033939513829086 -0.00010645676111827756 0.00527150129729109 -0.0006402260249010093 0.0010033939513829086 -0.0006402260249010093 0.005434526374449987" pbc="T T T"
Cu       0.03986383      -0.00653984       0.00967056       0.00218899       0.12018241       0.27118681      -0.24365483
Cu       0.04779705       1.80471045       1.79930274      -0.00310206       0.05911676       0.07244212       0.02413873
Cu       1.88870593       0.03648919       1.76063253       0.00169997      -0.35524964      -0.05951455       0.32304830
Cu       1.82026806       1.85085837      -0.00812861      -0.00135176       0.17595047      -0.28411438      -0.10353220
4
Lattice="3.6108 0.0 0.0 0.0 3.6108 0.0 0.0 0.0 3.6108" Properties=species:S:1:pos:R:3:energies:R:1:forces:R:3 energy=0.016717527626324724 free_energy=0.016717527626324724 stress="0.01037245875159119 0.0003065758451159421 0.00045933422979771915 0.0003065758451159421 0.010794238771807423 1.348268302907422e-05 0.00045933422979771915 1.348268302907422e-05 0.010493852128098115" pbc="T T T"
Cu      -0.02239130       0.01442977      -0.05015855       0.00640188       0.06078803      -0.27761861       0.50971389
Cu      -0.03052506       1.78442355       1.79731828      -0.00084678       0.12119849       0.20793776      -0.29998803
Cu       1.78031203      -0.00427035       1.84191316       0.00782982      -0.01611729      -0.14131783      -0.63062930
Cu       1.80049220       1.78421010      -0.03828410       0.00333261      -0.16586922       0.21099869       0.42090344
4
Lattice="3.6216 0.0 0.0 0.0 3.6216 0.0 0.0 0.0 3.6216" Properties=species:S:1:pos:R:3:energies:R:1:forces:R:3 energy=0.039633022924176586 free_energy=0.039633022924176586 stress="0.016348855143391513 -0.0001725015246960752 -0.0011274928181875914 -0.0001725015246960752 0.015750014947646912 0.003017106352877986 -0.0011274928181875914 0.003017106352877986 0.01595925910543115" pbc="T T T"
Cu       0.02641193      -0.01634769       0.03252160      -0.00141933      -0.11991876       0.22590849       0.11647687
Cu       0.03333518       1.82766349       1.84912315       0.00967610      -0.17771225      -0.39574572      -0.33649596
Cu       1.83246831      -0.05492780       1.86369402       0.01423631       0.07023866       0.51917510      -0.44848180
Cu       1.81058000       1.81871318      -0.04270942       0.01713994       0.22739235      -0.34933787       0.66850089
4
Lattice="3.6323999999999996 0.0 0.0 0.0 3.6323999999999996 0.0 0.0 0.0 3.6323999999999996" Properties=species:S:1:pos:R:3:energies:R:1:forces:R:3 energy=0.04856270331852386 free_energy=0.04856270331852386 stress="0.022059897062996735 0.002168731200010865 -0.0023422639471710497 0.002168731200010865 0.022791469801472466 -0.0013912986666536553 -0.0023422639471710497 -0.0013912986666536553 0.023300674756843456" pbc="T T T"
Cu       0.03094438       0.01346922       0.02877688       0.00547574      -0.39439264      -0.01066321      -0.06734783
Cu       0.03194629       1.80328211       1.83474065       0.01479261      -0.41853228       0.34227400      -0.23537929
Cu       1.80316124       0.05766206       1.83172113       0.01179911       0.33213240      -0.32109066      -0.20653685
Cu       1.78172292       1.85501268      -0.05453560       0.01649524       0.48079252      -0.01052013       0.50926396
4
Lattice="3.6432 0.0 0.0 0.0 3.6432 0.0 0.0 0.0 3.6432" Properties=species:S:1:pos:R:3:energies:R:1:forces:R:3 energy=0.04838090821097829 free_energy=0.04838090821097829 stress="0.03174736270146083 0.0008577407068338379 0.0005544784358821316 0.0008577407068338379 0.029967629144926573 0.0014501202967966793 0.0005544784358821316 0.0014501202967966793 0.028912270753944164" pbc="T T T"
Cu      -0.01594661      -0.01932121       0.00854962       0.00789046       0.29309923      -0.07999970      -0.09907823
Cu       0.01366973       1.82672302       1.82911240       0.00463453       0.09744269       0.08906859       0.01559862
Cu       1.84803069       0.05210428       1.80262342       0.01829242      -0.19048078      -0.55078166       0.19964827
Cu       1.84932128       1.75897032       0.00966519       0.01756349      -0.20006114       0.54171277      -0.11616866
4
Lattice="3.654 0.0 0.0 0.0 3.654 0.0 0.0 0.0 3.654" Properties=species:S:1:pos:R:3:energies:R:1:forces:R:3 energy=0.08870972364035445 free_energy=0.08870972364035445 stress="0.03389703516826959 -0.0021676281017863927 -0.0004574548275224085 -0.0021676281017863927 0.03245893728546348 -0.0007181406934642661 -0.0004574548275224085 -0.0007181406934642661 0.035878901334633694" pbc="T T T"
Cu      -0.00576529       0.06096727      -0.00720408       0.01572167      -0.06253802      -0.45278841      -0.13047767
Cu       0.09369831       1.82219510       1.78245390       0.03168898      -0.70027904       0.06539875       0.14186819
Cu       1.79174081      -0.04567730       1.81662930       0.02293757       0.52314478       0.23688124      -0.07193970
Cu       1.83531165       1.81148210      -0.03759746       0.01836150       0.23967227       0.15050842       0.06054918
4
Lattice="3.6648 0.0 0.0 0.0 3.6648 0.0 0.0 0.0 3.6648" Properties=species:S:1:pos:R:3:energies:R:1:forces:R:3 energy=0.09452337791238286 free_energy=0.09452337791238286 stress="0.0400768252335236 -0.0007058030612128367 0.00024876633370368256 -0.0007058030612128367 0.04104646263977658 0.0009690650684862122 0.00024876633370368256 0.0009690650684862122 0.04045659410869378" pbc="T T T"
Cu      -0.02469693       0.00716217      -0.06444395       0.02584627       0.11221364       0.21842765       0.52199003
Cu      -0.01659191       1.87158689       1.82328019       0.01736113       0.06280283      -0.27584224      -0.23955864
Cu       1.80565661      -0.01654146       1.87982896       0.03020212       0.03345278       0.36356272      -0.58787727
Cu       1.84597660       1.87532696      -0.02793451       0.02111385      -0.20846925      -0.30614812       0.30544588
