2
Lattice="20.0 0.0 0.0 0.0 20.0 0.0 0.0 0.0 20.0" Properties=species:S:1:pos:R:3 pbc="T T T"
Cu       9.00000000      10.00000000      10.00000000
Cu      11.00000000      10.00000000      10.00000000
2
Lattice="20.0 0.0 0.0 0.0 20.0 0.0 0.0 0.0 20.0" Properties=species:S:1:pos:R:3 pbc="T T T"
Cu       8.75000000      10.00000000      10.00000000
Cu      11.25000000      10.00000000      10.00000000
2
Lattice="20.0 0.0 0.0 0.0 20.0 0.0 0.0 0.0 20.0" Properties=species:S:1:pos:R:3 pbc="T T T"
Cu       8.50000000      10.00000000      10.00000000
Cu      11.50000000      10.00000000      10.00000000
