11
Lattice="4.978031739553295 0.0 0.0 2.4890158697766473 4.311101947298393 0.0 0.0 0.0 17.032272947547483" Properties=species:S:1:pos:R:3:move_mask:L:1:tags:I:1 pbc="T T F"
Ni       0.00000000       1.43703398       2.50000000  F        2
Ni       2.48901587       1.43703398       2.50000000  F        2
Ni       1.24450793       3.59258496       2.50000000  F        2
Ni       3.73352380       3.59258496       2.50000000  F        2
Ni       0.00000000       0.00000000       4.53227295  T        1
Ni       2.48901587       0.00000000       4.53227295  T        1
Ni       1.24450793       2.15555097       4.53227295  T        1
Ni       3.73352380       2.15555097       4.53227295  T        1
O        0.00000000       0.00000000       6.83227295  T        0
H       -0.76000000       0.59000000       6.83227295  T        0
H        0.76000000       0.59000000       6.83227295  T        0
